&CONTROL
  calculation = 'relax'
  etot_conv_thr =   1.0800000000d-03
  forc_conv_thr =   1.0000000000d-04
  outdir = './out/'
  prefix = 'aiida'
  pseudo_dir = '/home/svu/msev50/'
  tprnfor = .true.
  tstress = .true.
  verbosity = 'high'
/
&SYSTEM
 degauss =   7.3498618000d-03
  ecutrho =   3.6000000000d+02
  ecutwfc =   4.5000000000d+01
  ibrav = 0
  nat = 108
  ntyp = 1
  occupations = 'smearing'
  smearing = 'cold'
/
&ELECTRONS
  conv_thr =   2.8000000000d-04
  electron_maxstep = 100
  mixing_beta =   4.0000000000d-01
/

ATOMIC_SPECIES
C      12.0107 C.pbe-rrkjus.UPF
ATOMIC_POSITIONS crystal
C	0.000000	0.000000	0.000000	1.000000	1.000000	1.000000
C	0.000000	0.000000	0.333333	0.000000	0.000000	0.000000
C	0.000000	0.000000	0.666667	0.000000	0.000000	0.000000
C	0.000000	0.333333	0.000000	1.000000	1.000000	1.000000
C	0.000000	0.333333	0.333333	0.000000	0.000000	0.000000
C	0.000000	0.333333	0.666667	0.000000	0.000000	0.000000
C	0.000000	0.666667	0.000000	1.000000	1.000000	1.000000
C	0.000000	0.666667	0.333333	0.000000	0.000000	0.000000
C	0.000000	0.666667	0.666667	0.000000	0.000000	0.000000
C	0.333333	0.000000	0.000000	1.000000	1.000000	1.000000
C	0.333333	0.000000	0.333333	0.000000	0.000000	0.000000
C	0.333333	0.000000	0.666667	0.000000	0.000000	0.000000
C	0.333333	0.333333	0.000000	1.000000	1.000000	1.000000
C	0.333333	0.333333	0.333333	0.000000	0.000000	0.000000
C	0.333333	0.333333	0.666667	0.000000	0.000000	0.000000
C	0.333333	0.666667	0.000000	1.000000	1.000000	1.000000
C	0.333333	0.666667	0.333333	0.000000	0.000000	0.000000
C	0.333333	0.666667	0.666667	0.000000	0.000000	0.000000
C	0.666667	0.000000	0.000000	1.000000	1.000000	1.000000
C	0.666667	0.000000	0.333333	0.000000	0.000000	0.000000
C	0.666667	0.000000	0.666667	0.000000	0.000000	0.000000
C	0.666667	0.333333	0.000000	1.000000	1.000000	1.000000
C	0.666667	0.333333	0.333333	0.000000	0.000000	0.000000
C	0.666667	0.333333	0.666667	0.000000	0.000000	0.000000
C	0.666667	0.666667	0.000000	1.000000	1.000000	1.000000
C	0.666667	0.666667	0.333333	0.000000	0.000000	0.000000
C	0.666667	0.666667	0.666667	0.000000	0.000000	0.000000
C	0.000000	0.000000	0.166667	0.000000	0.000000	0.000000
C	0.000000	0.000000	0.500000	0.000000	0.000000	0.000000
C	0.000000	0.000000	0.833334	1.000000	1.000000	1.000000
C	0.000000	0.333333	0.166667	0.000000	0.000000	0.000000
C	0.000000	0.333333	0.500000	0.000000	0.000000	0.000000
C	0.000000	0.333333	0.833334	1.000000	1.000000	1.000000
C	0.000000	0.666667	0.166667	0.000000	0.000000	0.000000
C	0.000000	0.666667	0.500000	0.000000	0.000000	0.000000
C	0.000000	0.666667	0.833334	1.000000	1.000000	1.000000
C	0.333333	0.000000	0.166667	0.000000	0.000000	0.000000
C	0.333333	0.000000	0.500000	0.000000	0.000000	0.000000
C	0.333333	0.000000	0.833334	1.000000	1.000000	1.000000
C	0.333333	0.333333	0.166667	0.000000	0.000000	0.000000
C	0.333333	0.333333	0.500000	0.000000	0.000000	0.000000
C	0.333333	0.333333	0.833334	1.000000	1.000000	1.000000
C	0.333333	0.666667	0.166667	0.000000	0.000000	0.000000
C	0.333333	0.666667	0.500000	0.000000	0.000000	0.000000
C	0.333333	0.666667	0.833334	1.000000	1.000000	1.000000
C	0.666667	0.000000	0.166667	0.000000	0.000000	0.000000
C	0.666667	0.000000	0.500000	0.000000	0.000000	0.000000
C	0.666667	0.000000	0.833334	1.000000	1.000000	1.000000
C	0.666667	0.333333	0.166667	0.000000	0.000000	0.000000
C	0.666667	0.333333	0.500000	0.000000	0.000000	0.000000
C	0.666667	0.333333	0.833334	1.000000	1.000000	1.000000
C	0.666667	0.666667	0.166667	0.000000	0.000000	0.000000
C	0.666667	0.666667	0.500000	0.000000	0.000000	0.000000
C	0.666667	0.666667	0.833334	1.000000	1.000000	1.000000
C	0.111111	0.222222	0.001700	1.000000	1.000000	1.000000
C	0.111111	0.222222	0.335033	0.000000	0.000000	0.000000
C	0.111111	0.222222	0.668367	0.000000	0.000000	0.000000
C	0.111111	0.555555	0.001700	1.000000	1.000000	1.000000
C	0.111111	0.555555	0.335033	0.000000	0.000000	0.000000
C	0.111111	0.555555	0.668367	0.000000	0.000000	0.000000
C	0.111111	0.888889	0.001700	0.000000	0.000000	0.000000
C	0.111111	0.888889	0.335033	0.000000	0.000000	0.000000
C	0.111111	0.888889	0.668367	0.000000	0.000000	0.000000
C	0.444444	0.222222	0.001700	1.000000	1.000000	1.000000
C	0.444444	0.222222	0.335033	0.000000	0.000000	0.000000
C	0.444444	0.222222	0.668367	0.000000	0.000000	0.000000
C	0.444444	0.555555	0.001700	1.000000	1.000000	1.000000
C	0.444444	0.555555	0.335033	0.000000	0.000000	0.000000
C	0.444444	0.555555	0.668367	0.000000	0.000000	0.000000
C	0.444444	0.888889	0.001700	1.000000	1.000000	1.000000
C	0.444444	0.888889	0.335033	0.000000	0.000000	0.000000
C	0.444444	0.888889	0.668367	0.000000	0.000000	0.000000
C	0.777778	0.222222	0.001700	1.000000	1.000000	1.000000
C	0.777778	0.222222	0.335033	0.000000	0.000000	0.000000
C	0.777778	0.222222	0.668367	0.000000	0.000000	0.000000
C	0.777778	0.555555	0.001700	0.000000	0.000000	0.000000
C	0.777778	0.555555	0.335033	0.000000	0.000000	0.000000
C	0.777778	0.555555	0.668367	0.000000	0.000000	0.000000
C	0.777778	0.888889	0.001700	0.000000	0.000000	0.000000
C	0.777778	0.888889	0.335033	0.000000	0.000000	0.000000
C	0.777778	0.888889	0.668367	0.000000	0.000000	0.000000
C	0.222222	0.111111	0.168300	0.000000	0.000000	0.000000
C	0.222222	0.111111	0.501633	0.000000	0.000000	0.000000
C	0.222222	0.111111	0.834967	0.000000	0.000000	0.000000
C	0.222222	0.444444	0.168300	0.000000	0.000000	0.000000
C	0.222222	0.444444	0.501633	0.000000	0.000000	0.000000
C	0.222222	0.444444	0.834967	1.000000	1.000000	1.000000
C	0.222222	0.777778	0.168300	0.000000	0.000000	0.000000
C	0.222222	0.777778	0.501633	0.000000	0.000000	0.000000
C	0.222222	0.777778	0.834967	1.000000	1.000000	1.000000
C	0.555555	0.111111	0.168300	0.000000	0.000000	0.000000
C	0.555555	0.111111	0.501633	0.000000	0.000000	0.000000
C	0.555555	0.111111	0.834967	1.000000	1.000000	1.000000
C	0.555555	0.444444	0.168300	0.000000	0.000000	0.000000
C	0.555555	0.444444	0.501633	0.000000	0.000000	0.000000
C	0.555555	0.444444	0.834967	1.000000	1.000000	1.000000
C	0.555555	0.777778	0.168300	0.000000	0.000000	0.000000
C	0.555555	0.777778	0.501633	0.000000	0.000000	0.000000
C	0.555555	0.777778	0.834967	1.000000	1.000000	1.000000
C	0.888889	0.111111	0.168300	0.000000	0.000000	0.000000
C	0.888889	0.111111	0.501633	0.000000	0.000000	0.000000
C	0.888889	0.111111	0.834967	1.000000	1.000000	1.000000
C	0.888889	0.444444	0.168300	0.000000	0.000000	0.000000
C	0.888889	0.444444	0.501633	0.000000	0.000000	0.000000
C	0.888889	0.444444	0.834967	1.000000	1.000000	1.000000
C	0.888889	0.777778	0.168300	0.000000	0.000000	0.000000
C	0.888889	0.777778	0.501633	0.000000	0.000000	0.000000
C	0.888889	0.777778	0.834967	1.000000	1.000000	1.000000


K_POINTS automatic
7 7 3 0 0 0
CELL_PARAMETERS angstrom
      7.4100000000       0.0000000000       0.0000000000
     -3.7050000000       6.4172482420       0.0000000000
      0.0000000000       0.0000000000      20.3699990000