&CONTROL
  calculation = 'scf'
  etot_conv_thr =   1.0800000000d-03
  forc_conv_thr =   1.0000000000d-04
  outdir = './out/'
  prefix = 'aiida'
  pseudo_dir = '/home/svu/msev50/'
  tprnfor = .true.
  tstress = .true.
  verbosity = 'high'
/
&SYSTEM
  degauss =   3.00000000000d-02
  ecutrho =   6.0000000000d+02
  ecutwfc =   7.5000000000d+01
  ibrav = 0
  nat = 123
  nosym=.true.
  ntyp = 3
  occupations = 'smearing'
  smearing = 'cold'
  input_dft='vdw-df'
/
&ELECTRONS
  conv_thr =   2.8000000000d-04
  electron_maxstep = 100
  mixing_beta =   4.0000000000d-01
/

ATOMIC_SPECIES
C      12.0107 C.pbe-rrkjus.UPF
H      1.00794 H.pbe-rrkjus.UPF
O      15.9994 O.pbe-rrkjus.UPF

ATOMIC_POSITIONS crystal
C	0.999997	0.999997	0.001675
C	0.000000	0.000000	0.333333
C	0.000000	0.000000	0.666667
C	0.999996	0.333335	0.001623
C	0.000000	0.333333	0.333333
C	0.000000	0.333333	0.666667
C	0.999997	0.666669	0.001670
C	0.000000	0.666667	0.333333
C	0.000000	0.666667	0.666667
C	0.333336	0.000001	0.001643
C	0.333333	0.000000	0.333333
C	0.333333	0.000000	0.666667
C	0.333339	0.333336	0.001630
C	0.333333	0.333333	0.333333
C	0.333333	0.333333	0.666667
C	0.333337	0.666673	0.001622
C	0.333333	0.666667	0.333333
C	0.333333	0.666667	0.666667
C	0.666669	0.000002	0.001640
C	0.666667	0.000000	0.333333
C	0.666667	0.000000	0.666667
C	0.666670	0.333336	0.001642
C	0.666667	0.333333	0.333333
C	0.666667	0.333333	0.666667
C	0.666673	0.666670	0.001673
C	0.666667	0.666667	0.333333
C	0.666667	0.666667	0.666667
C	0.000000	0.000000	0.166667
C	0.000000	0.000000	0.500000
C	0.999999	0.999998	0.834790
C	0.000000	0.333333	0.166667
C	0.000000	0.333333	0.500000
C	0.000007	0.333337	0.834668
C	0.000000	0.666667	0.166667
C	0.000000	0.666667	0.500000
C	0.000007	0.666673	0.834668
C	0.333333	0.000000	0.166667
C	0.333333	0.000000	0.500000
C	0.333335	0.999995	0.834790
C	0.333333	0.333333	0.166667
C	0.333333	0.333333	0.500000
C	0.333338	0.333344	0.834790
C	0.333333	0.666667	0.166667
C	0.333333	0.666667	0.500000
C	0.333343	0.666676	0.834641
C	0.666667	0.000000	0.166667
C	0.666667	0.000000	0.500000
C	0.666672	0.999996	0.834642
C	0.666667	0.333333	0.166667
C	0.666667	0.333333	0.500000
C	0.666677	0.333339	0.834668
C	0.666667	0.666667	0.166667
C	0.666667	0.666667	0.500000
C	0.666676	0.666681	0.834642
C	0.111113	0.222223	0.001626
C	0.111111	0.222222	0.335033
C	0.111111	0.222222	0.668367
C	0.111112	0.555551	0.001620
C	0.111111	0.555555	0.335033
C	0.111111	0.555555	0.668367
C	0.111111	0.888889	0.001700
C	0.111111	0.888889	0.335033
C	0.111111	0.888889	0.668367
C	0.444438	0.222220	0.001627
C	0.444444	0.222222	0.335033
C	0.444444	0.222222	0.668367
C	0.444437	0.555548	0.001624
C	0.444444	0.555555	0.335033
C	0.444444	0.555555	0.668367
C	0.444439	0.888882	0.001621
C	0.444444	0.888889	0.335033
C	0.444444	0.888889	0.668367
C	0.777781	0.222221	0.001621
C	0.777778	0.222222	0.335033
C	0.777778	0.222222	0.668367
C	0.777778	0.555555	0.001700
C	0.777778	0.555555	0.335033
C	0.777778	0.555555	0.668367
C	0.777778	0.888889	0.001700
C	0.777778	0.888889	0.335033
C	0.777778	0.888889	0.668367
C	0.222222	0.111111	0.168300
C	0.222222	0.111111	0.501633
C	0.222222	0.111111	0.834967
C	0.222222	0.444444	0.168300
C	0.222222	0.444444	0.501633
C	0.222215	0.444432	0.834686
C	0.222222	0.777778	0.168300
C	0.222222	0.777778	0.501633
C	0.222216	0.777779	0.834686
C	0.555555	0.111111	0.168300
C	0.555555	0.111111	0.501633
C	0.555547	0.111113	0.834686
C	0.555555	0.444444	0.168300
C	0.555555	0.444444	0.501633
C	0.555545	0.444430	0.834686
C	0.555555	0.777778	0.168300
C	0.555555	0.777778	0.501633
C	0.555550	0.777774	0.834625
C	0.888889	0.111111	0.168300
C	0.888889	0.111111	0.501633
C	0.888886	0.111111	0.834686
C	0.888889	0.444444	0.168300
C	0.888889	0.444444	0.501633
C	0.888874	0.444433	0.834625
C	0.888889	0.777778	0.168300
C	0.888889	0.777778	0.501633
C	0.888885	0.777774	0.834687
H	0.385000	0.208604	0.924000
H	0.286461	0.360000	0.910314
O	0.372599	0.209106	0.900297
O	0.766526	0.787607	0.962573
C	0.681827	0.786730	0.937229
O	0.642655	0.861833	0.911885
O	0.637147	0.652167	0.936229
H	0.390000	0.630000	0.901923
H	0.231461	0.576677	0.932140
O	0.372599	0.609106	0.925297
O	0.766526	0.237607	0.962573
C	0.681827	0.236730	0.937229
O	0.642655	0.311833	0.911885
O	0.637147	0.112167	0.937229
O	0.172599	0.370000	0.900000

K_POINTS automatic
7 7 2 0 0 0
CELL_PARAMETERS angstrom
     -3.7050000000      -6.4172482420      -0.0000000000
     -3.7050000000       6.4172482420       0.0000000000
      0.0000000000       0.0000000000     -40.3699990000