&CONTROL
  calculation = 'scf'
  etot_conv_thr =   6.5000000000d-04
  forc_conv_thr =   1.0000000000d-04
  outdir = './out/'
  prefix = 'aiida'
  pseudo_dir = '/home/svu/msev50/'
  tprnfor = .true.
  tstress = .true.
  verbosity = 'high'
/
&SYSTEM
  degauss =   0.05
  ecutrho =   4.8000000000d+02
  ecutwfc =   6.0000000000d+01
  ibrav = 0
  nat = 65
  nspin = 2
  ntyp = 3
  occupations = 'smearing'
  smearing = 'cold'
  starting_magnetization(1) =   1.0000000000d-01
  starting_magnetization(2) =   1.0000000000d-01
  starting_magnetization(3) =   3.1250000000d-01
  input_dft='vdw-df',
/
&ELECTRONS
  conv_thr =   1.3000000000d-04
  electron_maxstep = 80
  mixing_beta =   4.0000000000d-01
/
ATOMIC_SPECIES
H      1.00794 H.pbe-rrkjus.UPF
O      15.9994 O.pbe-rrkjus.UPF
Pt     195.084 Pt.pbe-nd-rrkjus.UPF
ATOMIC_POSITIONS crystal
H            0.0287100000       0.9889900000       0.7151600000 
H            0.1065100000       0.9883600000       0.7539500000 
H            0.7557500000       0.3107500000       0.7503300000 
H            0.6527200000       0.3008400000       0.7150100000 
H            0.0107000000       0.2162000000       0.7474900000 
H            0.1033900000       0.4249300000       0.7538100000 
H            0.3415900000       0.9017700000       0.7631500000 
H            0.4434400000       0.1139900000       0.7637100000 
H            0.3713600000       0.7988300000       0.7112700000 
H            0.4550700000       0.7167100000       0.7379400000 
H            0.7711500000       0.7657400000       0.7448400000 
H            0.6732200000       0.6670300000       0.6874400000 
H            0.1525900000       0.0053100000       0.6586500000 
H            0.0568900000       0.1234500000       0.6580100000 
H            0.7009100000       0.4419100000       0.6571900000 
H            0.8146800000       0.3439000000       0.6592600000 
H            0.0497800000       0.3579200000       0.6911400000 
H            0.1552500000       0.4580100000       0.6553800000 
H            0.4774100000       0.0872300000       0.6614000000 
H            0.3752400000       0.8856100000       0.6488600000 
H            0.3823100000       0.6485100000       0.6059700000 
H            0.4939900000       0.6709800000       0.6413400000 
H            0.8029600000       0.7822600000       0.6561900000 
H            0.6492600000       0.5548900000       0.7458100000 
H            0.8945200000       0.4492500000       0.8146600000 
H            0.5504200000       0.4436300000       0.8148600000 
Pt           0.8888900000       0.1111100000       0.9669500000 
Pt           0.5555600000       0.1111100000       0.9669500000 
Pt           0.2222200000       0.1111100000       0.9669500000 
Pt           0.8888900000       0.4444400000       0.9669500000 
Pt           0.5555600000       0.4444400000       0.9669500000 
Pt           0.2222200000       0.4444400000       0.9669500000 
Pt           0.8888900000       0.7777800000       0.9669500000 
Pt           0.5555600000       0.7777800000       0.9669500000 
Pt           0.2222200000       0.7777800000       0.9669500000 
Pt           0.1111100000       0.2222200000       0.9030000000 
Pt           0.7777800000       0.2222200000       0.9030000000 
Pt           0.4444400000       0.2222200000       0.9030000000 
Pt           0.1111100000       0.5555600000       0.9030000000 
Pt           0.7777800000       0.5555600000       0.9030000000 
Pt           0.4444400000       0.5555600000       0.9030000000 
Pt           0.1111100000       0.8888900000       0.9030000000 
Pt           0.7777800000       0.8888900000       0.9030000000 
Pt           0.4444400000       0.8888900000       0.9030000000 
Pt           0.9986100000       0.0005100000       0.8392800000 
Pt           0.6674600000       0.9980800000       0.8389400000 
Pt           0.3326100000       0.9982400000       0.8376600000 
Pt           0.0029300000       0.3310100000       0.8379800000 
Pt           0.6657400000       0.3297700000       0.8382000000 
Pt           0.3277600000       0.3321700000       0.8379600000 
Pt           0.0034500000       0.6719000000       0.8381400000 
Pt           0.6684000000       0.6727200000       0.8379900000 
Pt           0.3345400000       0.6675000000       0.8392600000 
O            0.0037300000       0.9858300000       0.7415200000 
O            0.6446500000       0.3050100000       0.7418200000 
O            0.0075800000       0.3252300000       0.7402400000 
O            0.3322400000       0.0059100000       0.7722700000 
O            0.3522900000       0.7359800000       0.7345600000 
O            0.6555500000       0.6647200000       0.7363100000 
O            0.0374000000       0.0019100000       0.6621500000 
O            0.6928200000       0.3259000000       0.6622800000 
O            0.0459700000       0.3513700000       0.6640200000 
O            0.3651600000       0.9724700000       0.6646300000 
O            0.3826300000       0.6666400000       0.6321800000 
O            0.6866700000       0.6725400000       0.6603600000 
K_POINTS automatic
6 6 2 0 0 0
CELL_PARAMETERS angstrom
     -8.5311000000       0.0000000000      -0.0000000000
      4.2655500000       7.3881493222       0.0000000000
      0.0000000000       0.0000000000     -36.3073000000