&CONTROL
  calculation = 'scf'
  etot_conv_thr =   6.5000000000d-04
  forc_conv_thr =   1.0000000000d-04
  outdir = './out/'
  prefix = 'aiida'
  pseudo_dir = '/home/svu/msev50/'
  tprnfor = .true.
  tstress = .true.
  verbosity = 'high'
/
&SYSTEM
  degauss =   0.05
  ecutrho =   4.8000000000d+02
  ecutwfc =   6.0000000000d+01
  ibrav = 0
  nat = 65
  nspin = 2
  ntyp = 3
  occupations = 'smearing'
  smearing = 'cold'
  starting_magnetization(1) =   1.0000000000d-01
  starting_magnetization(2) =   1.0000000000d-01
  starting_magnetization(3) =   3.1250000000d-01
  input_dft='pbe',
/
&ELECTRONS
  conv_thr =   1.3000000000d-04
  electron_maxstep = 80
  mixing_beta =   7.0000000000d-01
/
ATOMIC_SPECIES
H      1.00794 H.pbe-rrkjus.UPF
O      15.9994 O.pbe-rrkjus.UPF
Pt     195.084 Pt.pbe-nd-rrkjus.UPF
ATOMIC_POSITIONS crystal
H            0.0253800000       0.0026800000       0.7127800000 
H            0.1021100000       0.0055600000       0.7516300000 
H            0.7606200000       0.3452100000       0.7453700000 
H            0.6530400000       0.3164800000       0.7099100000 
H            0.0242300000       0.2543100000       0.7432000000 
H            0.1184100000       0.4663500000       0.7422600000 
H            0.3309300000       0.9124500000       0.7582200000 
H            0.4314100000       0.1242700000       0.7584400000 
H            0.3601400000       0.7939500000       0.7079200000 
H            0.4507600000       0.7181000000       0.7343100000 
H            0.7731000000       0.7810100000       0.7413100000 
H            0.6774100000       0.6724000000       0.6841000000 
H            0.1577200000       0.9979800000       0.6569400000 
H            0.0637400000       0.1175800000       0.6540000000 
H            0.7000000000       0.4419100000       0.6516100000 
H            0.8097500000       0.3396800000       0.6524100000 
H            0.0452900000       0.3554900000       0.6842300000 
H            0.1551600000       0.4495100000       0.6486500000 
H            0.4769700000       0.0794500000       0.6584100000 
H            0.3771200000       0.8783900000       0.6456300000 
H            0.3902900000       0.6479900000       0.6014100000 
H            0.4987100000       0.6692100000       0.6371800000 
H            0.8112600000       0.7824500000       0.6530600000 
H            0.6480600000       0.5698900000       0.7427000000 
H            0.6960900000       0.9707900000       0.7867600000 
H            0.6684000000       0.0503000000       0.7866200000 
Pt           0.8888900000       0.1111100000       0.9669500000 
Pt           0.5555600000       0.1111100000       0.9669500000 
Pt           0.2222200000       0.1111100000       0.9669500000 
Pt           0.8888900000       0.4444400000       0.9669500000 
Pt           0.5555600000       0.4444400000       0.9669500000 
Pt           0.2222200000       0.4444400000       0.9669500000 
Pt           0.8888900000       0.7777800000       0.9669500000 
Pt           0.5555600000       0.7777800000       0.9669500000 
Pt           0.2222200000       0.7777800000       0.9669500000 
Pt           0.1111100000       0.2222200000       0.9030000000 
Pt           0.7777800000       0.2222200000       0.9030000000 
Pt           0.4444400000       0.2222200000       0.9030000000 
Pt           0.1111100000       0.5555600000       0.9030000000 
Pt           0.7777800000       0.5555600000       0.9030000000 
Pt           0.4444400000       0.5555600000       0.9030000000 
Pt           0.1111100000       0.8888900000       0.9030000000 
Pt           0.7777800000       0.8888900000       0.9030000000 
Pt           0.4444400000       0.8888900000       0.9030000000 
Pt           0.0026100000       0.0021900000       0.8395000000 
Pt           0.6697800000       0.0032000000       0.8362500000 
Pt           0.3320700000       0.0028000000       0.8382500000 
Pt           0.0040400000       0.3385200000       0.8389400000 
Pt           0.6687900000       0.3389600000       0.8392200000 
Pt           0.3343500000       0.3371000000       0.8386200000 
Pt           0.0002600000       0.6677900000       0.8383700000 
Pt           0.6674400000       0.6663000000       0.8388600000 
Pt           0.3325900000       0.6665300000       0.8389800000 
O            0.0003100000       0.0049800000       0.7389900000 
O            0.6447300000       0.3266700000       0.7365500000 
O            0.0137100000       0.3556400000       0.7335900000 
O            0.3212700000       0.0162600000       0.7668700000 
O            0.3445600000       0.7322300000       0.7312800000 
O            0.6554100000       0.6807300000       0.7334100000 
O            0.0434500000       0.9971500000       0.6598600000 
O            0.6891700000       0.3239800000       0.6558600000 
O            0.0454700000       0.3431100000       0.6572200000 
O            0.3672400000       0.9630100000       0.6621600000 
O            0.3871300000       0.6630800000       0.6276700000 
O            0.6938900000       0.6736900000       0.6571600000 
K_POINTS automatic
6 6 2 0 0 0
CELL_PARAMETERS angstrom
     -8.5311000000       0.0000000000      -0.0000000000
      4.2655500000       7.3881493222       0.0000000000
      0.0000000000       0.0000000000     -36.3073000000