&CONTROL
  calculation = 'scf'
  etot_conv_thr =   6.5000000000d-04
  forc_conv_thr =   1.0000000000d-04
  outdir = './out/'
  prefix = 'aiida'
  pseudo_dir = '/home/svu/msev50/'
  tprnfor = .true.
  tstress = .true.
  verbosity = 'high'
/
&SYSTEM
  degauss =   7.3498618000d-03
  ecutrho =   4.8000000000d+02
  ecutwfc =   6.0000000000d+01
  ibrav = 0
  nat = 65
  nspin = 2
  ntyp = 3
  occupations = 'smearing'
  smearing = 'cold'
  starting_magnetization(1) =   1.0000000000d-01
  starting_magnetization(2) =   1.0000000000d-01
  starting_magnetization(3) =   3.1250000000d-01
  input_dft='PBE',
/
&ELECTRONS
  conv_thr =   1.3000000000d-08
  electron_maxstep = 80
  mixing_beta =   4.0000000000d-01
/
ATOMIC_SPECIES
H      1.00794 H.pbe-rrkjus.UPF
O      15.9994 O.pbe-rrkjus.UPF
Pt     195.084 Pt.pbe-nd-rrkjus.UPF
ATOMIC_POSITIONS crystal
H            0.0297900000       0.9968400000       0.7124900000 
H            0.1096800000       0.0009700000       0.7510200000 
H            0.7667500000       0.3417200000       0.7446200000 
H            0.6565500000       0.3168500000       0.7097000000 
H            0.0289700000       0.2538500000       0.7433200000 
H            0.1230500000       0.4660200000       0.7408500000 
H            0.3392000000       0.9100900000       0.7601000000 
H            0.4426600000       0.1220300000       0.7603700000 
H            0.3504800000       0.7832600000       0.7080600000 
H            0.4419000000       0.7075100000       0.7341000000 
H            0.7646600000       0.7671700000       0.7407500000 
H            0.6772700000       0.6694900000       0.6822400000 
H            0.1585200000       0.9981800000       0.6553100000 
H            0.0635700000       0.1170000000       0.6533000000 
H            0.7035200000       0.4417000000       0.6503400000 
H            0.8130400000       0.3392600000       0.6519700000 
H            0.0464900000       0.3522300000       0.6840500000 
H            0.1556900000       0.4478700000       0.6484500000 
H            0.4784800000       0.0790600000       0.6568000000 
H            0.3782200000       0.8773100000       0.6443700000 
H            0.3863600000       0.6447100000       0.6005700000 
H            0.4986100000       0.6678400000       0.6359200000 
H            0.8113900000       0.7824800000       0.6514300000 
H            0.6500800000       0.5556900000       0.7393600000 
H            0.6927500000       0.0103300000       0.7654800000 
H            0.6889400000       0.0220500000       0.7453700000 
Pt           0.8888900000       0.1111100000       0.9669500000 
Pt           0.5555600000       0.1111100000       0.9669500000 
Pt           0.2222200000       0.1111100000       0.9669500000 
Pt           0.8888900000       0.4444400000       0.9669500000 
Pt           0.5555600000       0.4444400000       0.9669500000 
Pt           0.2222200000       0.4444400000       0.9669500000 
Pt           0.8888900000       0.7777800000       0.9669500000 
Pt           0.5555600000       0.7777800000       0.9669500000 
Pt           0.2222200000       0.7777800000       0.9669500000 
Pt           0.1111100000       0.2222200000       0.9030000000 
Pt           0.7777800000       0.2222200000       0.9030000000 
Pt           0.4444400000       0.2222200000       0.9030000000 
Pt           0.1111100000       0.5555600000       0.9030000000 
Pt           0.7777800000       0.5555600000       0.9030000000 
Pt           0.4444400000       0.5555600000       0.9030000000 
Pt           0.1111100000       0.8888900000       0.9030000000 
Pt           0.7777800000       0.8888900000       0.9030000000 
Pt           0.4444400000       0.8888900000       0.9030000000 
Pt           0.9990800000       0.0009200000       0.8392100000 
Pt           0.6678800000       0.0007800000       0.8391400000 
Pt           0.3339000000       0.0018200000       0.8374600000 
Pt           0.0004300000       0.3345400000       0.8387000000 
Pt           0.6683700000       0.3357400000       0.8391100000 
Pt           0.3334900000       0.3357700000       0.8387600000 
Pt           0.9993600000       0.6665400000       0.8386600000 
Pt           0.6667700000       0.6671900000       0.8385200000 
Pt           0.3333500000       0.6664700000       0.8388300000 
O            0.0074200000       0.0001100000       0.7387700000 
O            0.6523700000       0.3293200000       0.7363700000 
O            0.0169200000       0.3534700000       0.7333300000 
O            0.3319300000       0.0149800000       0.7689800000 
O            0.3358300000       0.7219800000       0.7314300000 
O            0.6516400000       0.6661500000       0.7314400000 
O            0.0436300000       0.9959200000       0.6582500000 
O            0.6928600000       0.3245700000       0.6554800000 
O            0.0458400000       0.3414000000       0.6570000000 
O            0.3679100000       0.9632700000       0.6603800000 
O            0.3859100000       0.6609300000       0.6268600000 
O            0.6940000000       0.6732800000       0.6552500000 
K_POINTS automatic
6 6 2 0 0 0
CELL_PARAMETERS angstrom
     -8.5311000000       0.0000000000      -0.0000000000
      4.2655500000       7.3881493222       0.0000000000
      0.0000000000       0.0000000000     -36.3073000000